Clp0006I 0  Obj 0 Primal inf 999.9999 (1000) Dual inf 6875752 (250000)
Clp0006I 200  Obj -4166119 Primal inf 304257 (1000)
Clp0006I 400  Obj -1433499 Primal inf 108848 (999)
Clp0006I 600  Obj -26918 Primal inf 12876 (994)
Clp0006I 720  Obj -26840 Primal inf 14946 (993)
Clp0006I 824  Obj -26840 Primal inf 46022 (993)
Clp0006I 907  Obj -26840 Primal inf 43585 (993)
Clp0006I 995  Obj -26840 Primal inf 54474 (991)
Clp0006I 1091  Obj -26840 Primal inf 60489 (991)
Clp0006I 1190  Obj -26840 Primal inf 58550 (991)
Clp0006I 1293  Obj -26840 Primal inf 41513 (993)
Clp0006I 1397  Obj -26840 Primal inf 52791 (993)
Clp0006I 1515  Obj -26840 Primal inf 44853 (992)
Clp0006I 1625  Obj -26840 Primal inf 49862 (991)
Clp0006I 1728  Obj -26840 Primal inf 63674 (991)
Clp0006I 1825  Obj -26840 Primal inf 37431 (989)
Clp0006I 1942  Obj -26840 Primal inf 41547 (987)
Clp0006I 2045  Obj -26840 Primal inf 38657 (986)
Clp0006I 2152  Obj -26840 Primal inf 44401 (984)
Clp0006I 2248  Obj -26840 Primal inf 47444 (989)
Clp0006I 2359  Obj -26840 Primal inf 46226 (983)
Clp0006I 2468  Obj -26840 Primal inf 50830 (981)
Clp0006I 2564  Obj -26840 Primal inf 62567 (984)
Clp0006I 2661  Obj -26840 Primal inf 49591 (984)
Clp0006I 2766  Obj -26840 Primal inf 39411 (984)
Clp0006I 2871  Obj -26840 Primal inf 48535 (983)
Clp0006I 2965  Obj -26840 Primal inf 48122 (979)
Clp0006I 3060  Obj -26840 Primal inf 37753 (979)
Clp0006I 3158  Obj -26840 Primal inf 32062 (979)
Clp0006I 3258  Obj -26840 Primal inf 58327 (980)
Clp0006I 3345  Obj -26765 Primal inf 51875 (977)
Clp0006I 3436  Obj -26627 Primal inf 47572 (974)
Clp0006I 3527  Obj -26627 Primal inf 36265 (969)
Clp0006I 3621  Obj -26627 Primal inf 46618 (969)
Clp0006I 3716  Obj -25277 Primal inf 43493 (968)
Clp0006I 3809  Obj -25277 Primal inf 40375 (969)
Clp0006I 3898  Obj -25277 Primal inf 53819 (965)
Clp0006I 3989  Obj -25277 Primal inf 37719 (962)
Clp0006I 4088  Obj -25212 Primal inf 37191 (958)
Clp0006I 4179  Obj -25212 Primal inf 42115 (959)
Clp0006I 4271  Obj -25177 Primal inf 42044 (957)
Clp0006I 4358  Obj -25177 Primal inf 28522 (948)
Clp0006I 4457  Obj -25142 Primal inf 24929 (944)
Clp0006I 4558  Obj -25079 Primal inf 41126 (934)
Clp0006I 4650  Obj -25079 Primal inf 30219 (933)
Clp0006I 4740  Obj -25079 Primal inf 35740 (941)
Clp0006I 4847  Obj -25079 Primal inf 30045 (930)
Clp0006I 4939  Obj -25079 Primal inf 29026 (921)
Clp0006I 5031  Obj -25079 Primal inf 32101 (920)
Clp0006I 5129  Obj -25079 Primal inf 31613 (923)
Clp0006I 5229  Obj -25079 Primal inf 44511 (924)
Clp0006I 5317  Obj -25079 Primal inf 35532 (914)
Clp0006I 5416  Obj -25079 Primal inf 30996 (915)
Clp0006I 5526  Obj -25079 Primal inf 34963 (909)
Clp0006I 5621  Obj -25079 Primal inf 40418 (912)
Clp0006I 5713  Obj -25079 Primal inf 38560 (908)
Clp0006I 5801  Obj -25079 Primal inf 26291 (899)
Clp0006I 5899  Obj -25079 Primal inf 26267 (900)
Clp0006I 5996  Obj -25079 Primal inf 30908 (903)
Clp0006I 6084  Obj -25021 Primal inf 32246 (896)
Clp0006I 6172  Obj -25000 Primal inf 24709 (894)
Clp0006I 6268  Obj -25000 Primal inf 23036 (889)
Clp0006I 6358  Obj -25000 Primal inf 29092 (885)
Clp0006I 6443  Obj -25000 Primal inf 31645 (881)
Clp0006I 6543  Obj -25000 Primal inf 40876 (876)
Clp0006I 6641  Obj -25000 Primal inf 31814 (873)
Clp0006I 6732  Obj -25000 Primal inf 27789 (866)
Clp0006I 6817  Obj -25000 Primal inf 29387 (879)
Clp0006I 6913  Obj -25000 Primal inf 26270 (874)
Clp0006I 6999  Obj -25000 Primal inf 28703 (865)
Clp0006I 7084  Obj -25000 Primal inf 22941 (858)
Clp0006I 7174  Obj -25000 Primal inf 22956 (847)
Clp0006I 7270  Obj -25000 Primal inf 26036 (848)
Clp0006I 7355  Obj -25000 Primal inf 18793 (841)
Clp0006I 7445  Obj -25000 Primal inf 25985 (837)
Clp0006I 7528  Obj -25000 Primal inf 19880 (832)
Clp0006I 7604  Obj -25000 Primal inf 18154 (835)
Clp0006I 7705  Obj -25000 Primal inf 27013 (830)
Clp0006I 7789  Obj -25000 Primal inf 19249 (830)
Clp0006I 7872  Obj -25000 Primal inf 27407 (820)
Clp0006I 7954  Obj -25000 Primal inf 30548 (819)
Clp0006I 8041  Obj -25000 Primal inf 15691 (812)
Clp0006I 8128  Obj -25000 Primal inf 26043 (790)
Clp0006I 8230  Obj -25000 Primal inf 28993 (791)
Clp0006I 8326  Obj -25000 Primal inf 27493 (792)
Clp0006I 8431  Obj -25000 Primal inf 33833 (795)
Clp0006I 8535  Obj -25000 Primal inf 36549 (780)
Clp0006I 8621  Obj -25000 Primal inf 35174 (781)
Clp0006I 8716  Obj -25000 Primal inf 33376 (778)
Clp0006I 8813  Obj -25000 Primal inf 33547 (776)
Clp0006I 8909  Obj -25000 Primal inf 32911 (782)
Clp0006I 9004  Obj -25000 Primal inf 18840 (783)
Clp0006I 9093  Obj -25000 Primal inf 20978 (766)
Clp0006I 9188  Obj -25000 Primal inf 13770 (739)
Clp0006I 9271  Obj -25000 Primal inf 7913.9999 (744)
Clp0006I 9360  Obj -25000 Primal inf 7125.9999 (720)
Clp0006I 9486  Obj -25000 Primal inf 10219 (713)
Clp0006I 9579  Obj -25000 Primal inf 7867.9999 (712)
Clp0006I 9683  Obj -25000 Primal inf 9301.9999 (703)
Clp0006I 9793  Obj -25000 Primal inf 8423.9999 (697)
Clp0006I 9892  Obj -25000 Primal inf 7087.9999 (684)
Clp0006I 10034  Obj -25000 Primal inf 4016.9999 (664)
Clp0006I 10167  Obj -25000 Primal inf 4605.9999 (652)
Clp0006I 10294  Obj -25000 Primal inf 2854.9999 (640)
Clp0006I 10413  Obj -25000 Primal inf 4970.9999 (626)
Clp0006I 10506  Obj -25000 Primal inf 3795.9999 (622)
Clp0006I 10591  Obj -25000 Primal inf 2891.9999 (617)
Clp0006I 10703  Obj -25000 Primal inf 2167.9999 (612)
Clp0006I 10832  Obj -25000 Primal inf 2466.9999 (574)
Clp0006I 10928  Obj -25000 Primal inf 2750.9999 (557)
Clp0006I 11023  Obj -25000 Primal inf 2686.9999 (543)
Clp0006I 11128  Obj -25000 Primal inf 1857.9999 (539)
Clp0006I 11254  Obj -25000 Primal inf 1774.9999 (504)
Clp0006I 11339  Obj -25000 Primal inf 1523.9999 (504)
Clp0006I 11468  Obj -25000 Primal inf 1785.9999 (518)
Clp0006I 11563  Obj -25000 Primal inf 2079 (485)
Clp0006I 11662  Obj -25000 Primal inf 940.99995 (466)
Clp0006I 11772  Obj -25000 Primal inf 876.99996 (436)
Clp0006I 11862  Obj -25000 Primal inf 912.99996 (398)
Clp0006I 11964  Obj -25000 Primal inf 1313 (403)
Clp0006I 12054  Obj -25000 Primal inf 1015 (383)
Clp0006I 12164  Obj -25000 Primal inf 664.99997 (350)
Clp0006I 12281  Obj -25000 Primal inf 706.99998 (245)
Clp0006I 12375  Obj -25000 Primal inf 701.99998 (240)
Clp0006I 12473  Obj -25000 Primal inf 420.99998 (202)
Clp0006I 12588  Obj -25000 Primal inf 256.99998 (157)
Clp0006I 12689  Obj -25000 Primal inf 241.99999 (128)
Clp0006I 12799  Obj -25000 Primal inf 182.99999 (91)
Clp0006I 12908  Obj -25000 Primal inf 58.999996 (42)
Clp0006I 13020  Obj -25000 Primal inf 7.9999992 (8)
Clp0006I 13064  Obj -25000
Clp0000I Optimal - objective value -25000
Clp0000I Optimal - objective value -25000
Node 0 depth 0 unsatisfied 0 sum 0 obj -25000 guess -25000 branching on -1
Clp0000I Optimal - objective value -25000
Cbc0004I Integer solution of -25000 found after 0 iterations and 0 nodes (29.23 seconds)
Cbc0001I Search completed - best objective -25000, took 0 iterations and 0 nodes (29.31 seconds)
Cbc0035I Maximum depth 0, 0 variables fixed on reduced cost
Clp0000I Optimal - objective value -25000
Clp0000I Optimal - objective value -25000
x_429 = 1
x_960 = 1
x_1372 = 1
x_1694 = 1
x_2302 = 1
x_2549 = 1
x_3235 = 1
x_3531 = 1
x_4127 = 1
x_4711 = 1
x_5022 = 1
x_5810 = 1
x_6391 = 1
x_6864 = 1
x_7251 = 1
x_7811 = 1
x_8383 = 1
x_8717 = 1
x_9300 = 1
x_9738 = 1
x_10174 = 1
x_10784 = 1
x_11240 = 1
x_11669 = 1
x_12386 = 1
x_12506 = 1
x_13236 = 1
x_13753 = 1
x_14150 = 1
x_14653 = 1
x_15404 = 1
x_15792 = 1
x_16117 = 1
x_16787 = 1
x_17190 = 1
x_17854 = 1
x_18187 = 1
x_18536 = 1
x_19191 = 1
x_19971 = 1
x_20179 = 1
x_20624 = 1
x_21264 = 1
x_21835 = 1
x_22348 = 1
x_22555 = 1
x_23009 = 1
x_23662 = 1
x_24350 = 1
x_24625 = 1
x_25280 = 1
x_25851 = 1
x_26073 = 1
x_26779 = 1
x_27024 = 1
x_27801 = 1
x_28149 = 1
x_28532 = 1
x_29345 = 1
x_29724 = 1
x_30277 = 1
x_30809 = 1
x_31338 = 1
x_31732 = 1
x_32254 = 1
x_32765 = 1
x_33400 = 1
x_33868 = 1
x_34297 = 1
x_34895 = 1
x_35334 = 1
x_35516 = 1
x_36143 = 1
x_36878 = 1
x_37394 = 1
x_37572 = 1
x_38269 = 1
x_38699 = 1
x_39357 = 1
x_39807 = 1
x_40075 = 1
x_40646 = 1
x_41381 = 1
x_41621 = 1
x_42177 = 1
x_42815 = 1
x_43393 = 1
x_43695 = 1
x_44099 = 1
x_44692 = 1
x_45044 = 1
x_45720 = 1
x_46268 = 1
x_46703 = 1
x_47412 = 1
x_47853 = 1
x_48134 = 1
x_48852 = 1
x_49454 = 1
x_49514 = 1
x_50132 = 1
x_50890 = 1
x_51197 = 1
x_51993 = 1
x_52296 = 1
x_52831 = 1
x_53340 = 1
x_53722 = 1
x_54210 = 1
x_54598 = 1
x_55259 = 1
x_55823 = 1
x_56294 = 1
x_56733 = 1
x_57054 = 1
x_57696 = 1
x_58020 = 1
x_58805 = 1
x_59131 = 1
x_59628 = 1
x_60312 = 1
x_60657 = 1
x_61161 = 1
x_61916 = 1
x_62158 = 1
x_62842 = 1
x_63373 = 1
x_63553 = 1
x_64062 = 1
x_64644 = 1
x_65069 = 1
x_65734 = 1
x_66042 = 1
x_66950 = 1
x_67090 = 1
x_67594 = 1
x_68201 = 1
x_68568 = 1
x_69399 = 1
x_69584 = 1
x_70101 = 1
x_70705 = 1
x_71360 = 1
x_71507 = 1
x_72256 = 1
x_72574 = 1
x_73182 = 1
x_73877 = 1
x_74164 = 1
x_74755 = 1
x_75018 = 1
x_75558 = 1
x_76498 = 1
x_76547 = 1
x_77030 = 1
x_77521 = 1
x_78085 = 1
x_78706 = 1
x_79245 = 1
x_79723 = 1
x_80154 = 1
x_80760 = 1
x_81111 = 1
x_81578 = 1
x_82118 = 1
x_82535 = 1
x_83248 = 1
x_83832 = 1
x_84299 = 1
x_84579 = 1
x_85426 = 1
x_85672 = 1
x_86141 = 1
x_86510 = 1
x_87080 = 1
x_87730 = 1
x_88278 = 1
x_88570 = 1
x_89262 = 1
x_89907 = 1
x_90231 = 1
x_90879 = 1
x_91130 = 1
x_91827 = 1
x_92106 = 1
x_92871 = 1
x_93000 = 1
x_93607 = 1
x_94308 = 1
x_94728 = 1
x_95221 = 1
x_95539 = 1
x_96207 = 1
x_96909 = 1
x_97275 = 1
x_97504 = 1
x_98290 = 1
x_98897 = 1
x_99244 = 1
x_99511 = 1
x_100102 = 1
x_100896 = 1
x_101291 = 1
x_101670 = 1
x_102405 = 1
x_102725 = 1
x_103152 = 1
x_103541 = 1
x_104286 = 1
x_104665 = 1
x_105059 = 1
x_105774 = 1
x_106017 = 1
x_106704 = 1
x_107063 = 1
x_107655 = 1
x_108208 = 1
x_108673 = 1
x_109213 = 1
x_109564 = 1
x_110093 = 1
x_110645 = 1
x_111060 = 1
x_111648 = 1
x_112086 = 1
x_112961 = 1
x_113215 = 1
x_113826 = 1
x_114285 = 1
x_114552 = 1
x_115159 = 1
x_115683 = 1
x_116344 = 1
x_116636 = 1
x_117200 = 1
x_117546 = 1
x_118314 = 1
x_118729 = 1
x_119337 = 1
x_119508 = 1
x_120370 = 1
x_120587 = 1
x_121363 = 1
x_121747 = 1
x_122270 = 1
x_122889 = 1
x_123082 = 1
x_123533 = 1
x_124415 = 1
x_124771 = 1
x_125246 = 1
x_125684 = 1
x_126109 = 1
x_126651 = 1
x_127329 = 1
x_127876 = 1
x_128061 = 1
x_128534 = 1
x_129281 = 1
x_129612 = 1
x_130313 = 1
x_130841 = 1
x_131435 = 1
x_131987 = 1
x_132092 = 1
x_132830 = 1
x_133181 = 1
x_133543 = 1
x_134242 = 1
x_134668 = 1
x_135003 = 1
x_135633 = 1
x_136142 = 1
x_136501 = 1
x_137186 = 1
x_137538 = 1
x_138113 = 1
x_138588 = 1
x_139441 = 1
x_139619 = 1
x_140424 = 1
x_140615 = 1
x_141120 = 1
x_141884 = 1
x_142263 = 1
x_142603 = 1
x_143258 = 1
x_143689 = 1
x_144467 = 1
x_144990 = 1
x_145250 = 1
x_145716 = 1
x_146023 = 1
x_146741 = 1
x_147356 = 1
x_147685 = 1
x_148318 = 1
x_148902 = 1
x_149027 = 1
x_149604 = 1
x_150198 = 1
x_150966 = 1
x_151336 = 1
x_151623 = 1
x_152028 = 1
x_152525 = 1
x_153139 = 1
x_153772 = 1
x_154050 = 1
x_154928 = 1
x_155476 = 1
x_155576 = 1
x_156066 = 1
x_156925 = 1
x_157178 = 1
x_157953 = 1
x_158355 = 1
x_158556 = 1
x_159129 = 1
x_159927 = 1
x_160012 = 1
x_160726 = 1
x_161333 = 1
x_161583 = 1
x_162097 = 1
x_162712 = 1
x_163026 = 1
x_163942 = 1
x_164398 = 1
x_164660 = 1
x_165319 = 1
x_165647 = 1
x_166037 = 1
x_166656 = 1
x_167365 = 1
x_167956 = 1
x_168366 = 1
x_168933 = 1
x_169243 = 1
x_169984 = 1
x_170015 = 1
x_170739 = 1
x_171494 = 1
x_171869 = 1
x_172095 = 1
x_172714 = 1
x_173202 = 1
x_173974 = 1
x_174188 = 1
x_174680 = 1
x_175077 = 1
x_175861 = 1
x_176282 = 1
x_176608 = 1
x_177081 = 1
x_177667 = 1
x_178445 = 1
x_178820 = 1
x_179362 = 1
x_179783 = 1
x_180171 = 1
x_180545 = 1
x_181293 = 1
x_181920 = 1
x_182339 = 1
x_182948 = 1
x_183176 = 1
x_183548 = 1
x_184100 = 1
x_184825 = 1
x_185105 = 1
x_185957 = 1
x_186421 = 1
x_186719 = 1
x_187266 = 1
x_187557 = 1
x_188193 = 1
x_188551 = 1
x_189252 = 1
x_189969 = 1
x_190071 = 1
x_190824 = 1
x_191137 = 1
x_191666 = 1
x_192091 = 1
x_192675 = 1
x_193477 = 1
x_193932 = 1
x_194385 = 1
x_194937 = 1
x_195249 = 1
x_195996 = 1
x_196446 = 1
x_196505 = 1
x_197472 = 1
x_197519 = 1
x_198295 = 1
x_198640 = 1
x_199479 = 1
x_199610 = 1
x_200346 = 1
x_200709 = 1
x_201489 = 1
x_201718 = 1
x_202499 = 1
x_202804 = 1
x_203288 = 1
x_203874 = 1
x_204358 = 1
x_204918 = 1
x_205438 = 1
x_205614 = 1
x_206289 = 1
x_206626 = 1
x_207029 = 1
x_207565 = 1
x_208449 = 1
x_208922 = 1
x_209406 = 1
x_209622 = 1
x_210298 = 1
x_210821 = 1
x_211417 = 1
x_211502 = 1
x_212408 = 1
x_212817 = 1
x_213316 = 1
x_213596 = 1
x_214447 = 1
x_214959 = 1
x_215434 = 1
x_215940 = 1
x_216419 = 1
x_216986 = 1
x_217237 = 1
x_217887 = 1
x_218392 = 1
x_218952 = 1
x_219431 = 1
x_219828 = 1
x_220483 = 1
x_220567 = 1
x_221382 = 1
x_221978 = 1
x_222276 = 1
x_222988 = 1
x_223257 = 1
x_223767 = 1
x_224261 = 1
x_224965 = 1
x_225482 = 1
x_225589 = 1
x_226347 = 1
x_226806 = 1
x_227343 = 1
x_227964 = 1
x_228411 = 1
x_228970 = 1
x_229401 = 1
x_229849 = 1
x_230367 = 1
x_230822 = 1
x_231303 = 1
x_231958 = 1
x_232451 = 1
x_232955 = 1
x_233410 = 1
x_233985 = 1
x_234413 = 1
x_234859 = 1
x_235138 = 1
x_235540 = 1
x_236492 = 1
x_236975 = 1
x_237163 = 1
x_237888 = 1
x_238403 = 1
x_238727 = 1
x_239423 = 1
x_239980 = 1
x_240430 = 1
x_240875 = 1
x_241491 = 1
x_241936 = 1
x_242468 = 1
x_242962 = 1
x_243135 = 1
x_243997 = 1
x_244463 = 1
x_244981 = 1
x_245444 = 1
x_245939 = 1
x_246380 = 1
x_246773 = 1
x_247116 = 1
x_247943 = 1
x_248495 = 1
x_248973 = 1
x_249013 = 1
x_249914 = 1
real 0m30,647s user 0m30,404s sys 0m0,204s
